(set-info :status unknown)
(declare-fun C () (_ BitVec 64))
(declare-fun %x () (_ BitVec 28))
(declare-fun |ana_WillNotOverflowSignedAdd(%x, trunc(C))| () (_ BitVec 1))
(declare-fun u_%sx () (_ BitVec 8))
(assert
 (let (($x10676 (and (distinct (bvadd ((_ sign_extend 36) %x) C) ((_ sign_extend 36) (bvadd %x ((_ extract 27 0) C)))) true)))
 (let (($x9365 (= |ana_WillNotOverflowSignedAdd(%x, trunc(C))| (_ bv1 1))))
 (let (($x9869 (= (bvadd ((_ sign_extend 1) %x) ((_ sign_extend 1) ((_ extract 27 0) C))) ((_ sign_extend 1) (bvadd %x ((_ extract 27 0) C))))))
 (and (=> $x9365 $x9869) (= u_%sx (_ bv1 8)) $x9365 (= (bvand C (bvshl (_ bv18446744073709551615 64) (bvsub (_ bv28 64) (_ bv1 64)))) (_ bv0 64)) $x10676)))))
(check-sat)
